(set-info :origin "NTS benchmark converted to SMT-LIB2 using Eldarica (http://lara.epfl.ch/w/eldarica)")
(set-logic HORN)
(declare-fun p (Int Int Int Int Int Int Int Int Int) Bool)
(assert(forall((A Int)(B Int)(C Int)(D Int)(E Int)(F Int)(G Int)(H Int)(I Int)(J Int)(K Int)(L Int)(M Int)(N Int)(O Int)(P Int)(Q Int)(R Int))(=>(and (and (= A 0) (and (and (and (and (and (and (and (= J B) (= K C)) (= L D)) (= M E)) (= N F)) (= O G)) (= P H)) (= Q I))) (and (and (and (and (and (and (and (and (and (and (and (not (not (= Q Q))) (not (not (= P P)))) (not (not (= N O)))) (not (not (= N N)))) (not (not (= M M)))) (not (not (= L L)))) (not (not (= K K)))) (not (not (= J J)))) (not (not (= L N)))) (not (= (+ R 0) 0))) (not (not (= N Q)))) (not (and (or (not (>= (+ N (- 1)) 0)) (not (= (+ R (- 1)) 0))) (or (>= (+ N (- 1)) 0) (not (= (+ R 0) 0))))))) (p A B C D E F G H I))))
(assert(forall((A Int)(B Int)(C Int)(D Int)(E Int)(F Int)(G Int)(H Int)(I Int)(J Int)(K Int)(L Int)(M Int)(N Int)(O Int)(P Int)(Q Int)(R Int)(S Int)(T Int)(U Int)(V Int)(W Int)(X Int)(Y Int)(Z Int)(A1 Int)(B1 Int)(C1 Int)(D1 Int))(=>(and (and (and (and (and (= A 0) (= J 0)) (and (and (and (and (and (and (and (= K B) (= L C)) (= M D)) (= N E)) (= O F)) (= P G)) (= Q H)) (= R I))) (and (and (and (and (and (and (and (= K S) (= L T)) (= U V)) (= N W)) (= O X)) (= U Y)) (= Q Z)) (= R A1))) (and (and (and (and (and (and (and (and (and (and (and (and (and (and (and (not (not (= R R))) (not (not (= Q Q)))) (not (not (= P P)))) (not (not (= O O)))) (not (not (= N N)))) (not (not (= M M)))) (not (not (= L L)))) (not (not (= K K)))) (not (not (= M P)))) (not (not (= (+ B1 0) 0)))) (not (= (+ C1 0) 0))) (not (not (= P (+ U (- 1)))))) (not (not (= O R)))) (not (and (or (not (= (+ P 0) 0)) (not (= (+ B1 (- 1)) 0))) (or (= (+ P 0) 0) (not (= (+ B1 0) 0)))))) (not (and (or (not (>= (+ U 0) 0)) (not (= (+ D1 (- 1)) 0))) (or (>= (+ U 0) 0) (not (= (+ D1 0) 0)))))) (not (and (or (not (>= (+ O (- 1)) 0)) (not (= (+ C1 (- 1)) 0))) (or (>= (+ O (- 1)) 0) (not (= (+ C1 0) 0))))))) (p J S T V W X Y Z A1)) (p A B C D E F G H I))))
(assert(not (exists((A Int)(B Int)(C Int)(D Int)(E Int)(F Int)(G Int)(H Int)(I Int)(J Int)(K Int)(L Int)(M Int)(N Int)(O Int)(P Int)(Q Int)(R Int)(S Int))(and (and (and (= A 0) (and (and (and (and (and (and (and (= B C) (= D E)) (= F G)) (= H I)) (= J K)) (= F L)) (= M N)) (= O P))) (and (and (and (and (and (not (not (= (+ Q 0) 0))) (not (and (or (not (>= (+ J (- 1)) 0)) (not (= (+ R (- 1)) 0))) (or (>= (+ J (- 1)) 0) (not (= (+ R 0) 0)))))) (not (and (or (not (>= (+ F 0) 0)) (not (= (+ S (- 1)) 0))) (or (>= (+ F 0) 0) (not (= (+ S 0) 0)))))) (not (not (= J O)))) (not (= (+ R 0) 0))) (not (not (= Q S))))) (p A C E G I K L N P)))))
(check-sat)
